\ Model QCP
\ LP format - for model browsing. Use MPS format to capture full model detail.
Minimize
  z + 4 y
Subject To
 Cut_0: z + [ 0.00382165605095541 y ^2 ] >= 1792.019108280255
 Cut_1: z + [ 0.6806853582554518 y ^2 ] >= 3278.08722741433
 Cut_2: z + [ 0.2711864406779672 y ^2 ] >= 2389.474576271189
 Cut_3: z + [ 0.0152671755725191 y ^2 ] >= 1819.030534351145
Bounds
 1775 <= z <= 2238
 39.08964057138413 <= y <= 72.20110802473879
End
